NAME : rc_201.1.5920611.tour
COMMENT : Length = 5920611
COMMENT : Found by LKH [Keld Helsgaun] Tue May  2 05:51:21 2017
TYPE : TOUR
DIMENSION : 20
TOUR_SECTION
1
15
14
19
10
6
5
7
9
17
8
18
2
4
12
20
11
13
3
16
-1
EOF
